decision_x1=[0,4];
decision_x2=[0,4];
decision_x3=[0,4];
decision_x4=[0,4];
decision_x5=[0,4];
decision_x6=[0,4];
decision_x7=[0,4];
decision_x8=[0,4];
decision_x9=[0,4];
decision_x10=[0,4];
decision_x11=[0,4];
decision_x12=[0,4];
random_y1=[0,4];
random_y2=[0,4];
random_y3=[0,4];
random_y4=[0,4];
random_y5=[0,4];
random_y6=[0,4];
constraint_x2_x1=[
0,1,0.83|
0,2,9|
0,3,3.7|
0,4,7.8|
1,0,2.2|
1,2,4.4|
1,3,9.2|
1,4,5.5|
2,0,9.9|
2,1,7.3|
2,3,8.8|
2,4,6.5|
3,0,2.5|
3,1,9.2|
3,2,3.2|
3,4,4.8|
4,0,5|
4,1,9.9|
4,2,7.6|
4,3,9.3|
];
constraint_x3_x2=[
0,1,8.4|
0,2,4.4|
0,3,7|
0,4,7.9|
1,0,8.5|
1,2,8|
1,3,8.8|
1,4,7.4|
2,0,7.1|
2,1,9.4|
2,3,4.1|
2,4,9.9|
3,0,1.9|
3,1,6.9|
3,2,8.2|
3,4,9|
4,0,4.9|
4,1,6.2|
4,2,1.9|
4,3,6.4|
];
constraint_x4_x1=[
0,1,4.3|
0,2,9.6|
0,3,4.5|
0,4,3.8|
1,0,7.4|
1,2,6.3|
1,3,1.5|
1,4,6.7|
2,0,7.5|
2,1,2.3|
2,3,9.9|
2,4,9.2|
3,0,6.1|
3,1,6.8|
3,2,9.9|
3,4,1.5|
4,0,7.1|
4,1,3.6|
4,2,2.3|
4,3,6.5|
];
constraint_x5_x1=[
0,1,3.2|
0,2,5.7|
0,3,8.5|
0,4,5.4|
1,0,1.2|
1,2,8.2|
1,3,0.2|
1,4,8.8|
2,0,4|
2,1,8.9|
2,3,1.8|
2,4,2.4|
3,0,3.5|
3,1,5.7|
3,2,6.7|
3,4,3|
4,0,0.41|
4,1,2.8|
4,2,0.96|
4,3,9.6|
];
constraint_x5_x2=[
0,1,5.4|
0,2,5.5|
0,3,6.4|
0,4,0.37|
1,0,1.5|
1,2,5.2|
1,3,9.3|
1,4,7.5|
2,0,0.86|
2,1,2.6|
2,3,7.8|
2,4,5.5|
3,0,4.9|
3,1,2.6|
3,2,0.68|
3,4,0.11|
4,0,6.4|
4,1,1.2|
4,2,6.4|
4,3,1.5|
];
constraint_x5_x3=[
0,1,8|
0,2,9.9|
0,3,0.38|
0,4,8.2|
1,0,8.2|
1,2,1.1|
1,3,8.5|
1,4,3.3|
2,0,2.9|
2,1,0.75|
2,3,6.1|
2,4,4.3|
3,0,0.16|
3,1,8.2|
3,2,4.8|
3,4,3.3|
4,0,6.3|
4,1,7.4|
4,2,5.8|
4,3,8.3|
];
constraint_x5_x4=[
0,1,8.4|
0,2,4.7|
0,3,6.6|
0,4,1.4|
1,0,3.3|
1,2,3.9|
1,3,5.1|
1,4,5|
2,0,3.9|
2,1,1.4|
2,3,6.8|
2,4,4.3|
3,0,0.13|
3,1,7.6|
3,2,6.3|
3,4,10|
4,0,0.41|
4,1,7|
4,2,1.7|
4,3,9.6|
];
constraint_x6_x3=[
0,1,2.5|
0,2,4.3|
0,3,1.4|
0,4,3.8|
1,0,8.2|
1,2,5.9|
1,3,3|
1,4,1.3|
2,0,0.22|
2,1,0.6|
2,3,7|
2,4,5.3|
3,0,2.1|
3,1,5.6|
3,2,4.3|
3,4,6.6|
4,0,7.3|
4,1,2.2|
4,2,3.1|
4,3,4.5|
];
constraint_x6_x4=[
0,1,6.6|
0,2,7|
0,3,6.5|
0,4,6.4|
1,0,4.2|
1,2,3|
1,3,1.1|
1,4,9.7|
2,0,9.3|
2,1,3.5|
2,3,8.3|
2,4,7|
3,0,8.1|
3,1,1.7|
3,2,5.2|
3,4,8.7|
4,0,4|
4,1,7.8|
4,2,6.5|
4,3,7|
];
constraint_x7_x1=[
0,1,5.3|
0,2,4.9|
0,3,1.9|
0,4,9.8|
1,0,5.7|
1,2,2.5|
1,3,7.7|
1,4,5.3|
2,0,7.4|
2,1,1.2|
2,3,9.3|
2,4,6.9|
3,0,5.8|
3,1,6.1|
3,2,0.71|
3,4,8.1|
4,0,1.5|
4,1,8.9|
4,2,6.3|
4,3,6.3|
];
constraint_x7_x6=[
0,1,6.5|
0,2,8.2|
0,3,4.4|
0,4,5.8|
1,0,0.51|
1,2,7.2|
1,3,4.2|
1,4,4.3|
2,0,2.1|
2,1,0.43|
2,3,9|
2,4,6.1|
3,0,0.9|
3,1,5.4|
3,2,1.5|
3,4,0.7|
4,0,4.8|
4,1,5.2|
4,2,3.7|
4,3,2.4|
];
constraint_x8_x6=[
0,1,8.1|
0,2,3|
0,3,5.8|
0,4,7.5|
1,0,8.6|
1,2,4.6|
1,3,6.7|
1,4,0.4|
2,0,8.6|
2,1,0.018|
2,3,0.26|
2,4,0.3|
3,0,7.1|
3,1,3.7|
3,2,5.7|
3,4,8|
4,0,6.4|
4,1,8.6|
4,2,1.5|
4,3,7.8|
];
constraint_x8_x7=[
0,1,2.4|
0,2,8.4|
0,3,8.7|
0,4,5.1|
1,0,8.7|
1,2,0.57|
1,3,2.6|
1,4,8.9|
2,0,2.5|
2,1,4.9|
2,3,9.8|
2,4,1.5|
3,0,2|
3,1,3.2|
3,2,7.5|
3,4,2.3|
4,0,0.73|
4,1,3.3|
4,2,2.6|
4,3,1.2|
];
constraint_x9_x1=[
0,1,3.2|
0,2,9.2|
0,3,7.6|
0,4,8.4|
1,0,6.6|
1,2,4.3|
1,3,4.6|
1,4,0.88|
2,0,7.2|
2,1,4|
2,3,2.4|
2,4,8.7|
3,0,5.5|
3,1,0.25|
3,2,5.4|
3,4,9.2|
4,0,4.5|
4,1,8.1|
4,2,6.7|
4,3,6.3|
];
constraint_x9_x2=[
0,1,4|
0,2,7.9|
0,3,7.3|
0,4,9.5|
1,0,1|
1,2,1.2|
1,3,8|
1,4,4.2|
2,0,4.2|
2,1,0.061|
2,3,1.6|
2,4,7.4|
3,0,5.4|
3,1,7.2|
3,2,2.7|
3,4,8.4|
4,0,2.2|
4,1,6.5|
4,2,6.9|
4,3,7.5|
];
constraint_x9_x4=[
0,1,6.8|
0,2,1.6|
0,3,6.3|
0,4,0.24|
1,0,6.1|
1,2,3.9|
1,3,6|
1,4,0.49|
2,0,5.9|
2,1,0.28|
2,3,5.5|
2,4,0.93|
3,0,5.5|
3,1,7|
3,2,0.25|
3,4,0.75|
4,0,8.1|
4,1,3.9|
4,2,7.9|
4,3,8.6|
];
constraint_x9_x6=[
0,1,4.5|
0,2,2.6|
0,3,5.3|
0,4,6.4|
1,0,3.5|
1,2,4.5|
1,3,5.8|
1,4,9.3|
2,0,6.8|
2,1,0.7|
2,3,4.6|
2,4,4.8|
3,0,9.4|
3,1,5|
3,2,3.5|
3,4,2.9|
4,0,8.8|
4,1,2.4|
4,2,1.1|
4,3,3.1|
];
constraint_x9_x7=[
0,1,9.2|
0,2,0.68|
0,3,5.1|
0,4,3.9|
1,0,1.5|
1,2,1|
1,3,6.1|
1,4,8.4|
2,0,7.8|
2,1,3.1|
2,3,0.66|
2,4,9.1|
3,0,2|
3,1,6.8|
3,2,3.7|
3,4,4.1|
4,0,8.2|
4,1,4.1|
4,2,3.1|
4,3,9.2|
];
constraint_x10_x1=[
0,1,3.6|
0,2,9.5|
0,3,1.7|
0,4,2.9|
1,0,1.9|
1,2,5|
1,3,4.8|
1,4,8|
2,0,8.5|
2,1,5.8|
2,3,8.7|
2,4,9|
3,0,2.9|
3,1,6.4|
3,2,9.3|
3,4,7.5|
4,0,4.2|
4,1,4.5|
4,2,6.7|
4,3,9.2|
];
constraint_x10_x5=[
0,1,2.8|
0,2,1.7|
0,3,1.1|
0,4,2.5|
1,0,3|
1,2,7.6|
1,3,2|
1,4,9.6|
2,0,6.6|
2,1,5.9|
2,3,1.4|
2,4,0.44|
3,0,8|
3,1,7.3|
3,2,7.8|
3,4,8.6|
4,0,0.26|
4,1,0.62|
4,2,8.8|
4,3,7|
];
constraint_x10_x7=[
0,1,8|
0,2,8|
0,3,7.3|
0,4,9.8|
1,0,5.8|
1,2,8.7|
1,3,7.9|
1,4,3.7|
2,0,3.9|
2,1,5.7|
2,3,6.3|
2,4,8.5|
3,0,3.1|
3,1,7.1|
3,2,4.9|
3,4,8.3|
4,0,6.3|
4,1,6.3|
4,2,6|
4,3,6.6|
];
constraint_x10_x8=[
0,1,7.9|
0,2,0.32|
0,3,8.2|
0,4,5.2|
1,0,2.8|
1,2,0.13|
1,3,4.1|
1,4,3.8|
2,0,6.4|
2,1,7.5|
2,3,6.2|
2,4,3.8|
3,0,3.8|
3,1,0.13|
3,2,1.9|
3,4,3|
4,0,6.2|
4,1,7.7|
4,2,4.4|
4,3,7.6|
];
constraint_x11_x1=[
0,1,2.5|
0,2,2.7|
0,3,4.6|
0,4,7|
1,0,1.6|
1,2,4.3|
1,3,3.1|
1,4,8|
2,0,2|
2,1,6.9|
2,3,4.9|
2,4,6.4|
3,0,6.5|
3,1,6|
3,2,5.1|
3,4,4.6|
4,0,9.8|
4,1,0.99|
4,2,4.9|
4,3,2|
];
constraint_x11_x2=[
0,1,2.6|
0,2,8.6|
0,3,8.8|
0,4,8.7|
1,0,6.7|
1,2,4|
1,3,1.5|
1,4,1.6|
2,0,6.9|
2,1,4.6|
2,3,9.8|
2,4,4.5|
3,0,2.3|
3,1,1.1|
3,2,0.79|
3,4,4.3|
4,0,4|
4,1,1.5|
4,2,1.4|
4,3,7.5|
];
constraint_x11_x3=[
0,1,7.4|
0,2,1.3|
0,3,9.7|
0,4,9.7|
1,0,6.9|
1,2,2.9|
1,3,9.5|
1,4,7.5|
2,0,7.9|
2,1,2.2|
2,3,6.4|
2,4,6.2|
3,0,6.9|
3,1,0.69|
3,2,9.1|
3,4,1.4|
4,0,4.6|
4,1,2.2|
4,2,1.9|
4,3,6|
];
constraint_x11_x4=[
0,1,7.3|
0,2,1.1|
0,3,1|
0,4,9.7|
1,0,5.6|
1,2,9.5|
1,3,4.3|
1,4,0.15|
2,0,0.61|
2,1,0.042|
2,3,5.6|
2,4,9.1|
3,0,2.7|
3,1,8.4|
3,2,2|
3,4,8|
4,0,4.9|
4,1,1.9|
4,2,9.2|
4,3,6.2|
];
constraint_x11_x6=[
0,1,7.7|
0,2,5.8|
0,3,9.8|
0,4,4.2|
1,0,4.1|
1,2,4.4|
1,3,3.5|
1,4,0.68|
2,0,8.3|
2,1,7.1|
2,3,0.82|
2,4,2.4|
3,0,2.4|
3,1,0.58|
3,2,2.6|
3,4,3.9|
4,0,1.7|
4,1,4.7|
4,2,4.4|
4,3,8.5|
];
constraint_x11_x7=[
0,1,1.6|
0,2,4.2|
0,3,7.2|
0,4,1.1|
1,0,0.4|
1,2,7.8|
1,3,8.5|
1,4,4.8|
2,0,9.5|
2,1,1.4|
2,3,0.91|
2,4,4.1|
3,0,2.8|
3,1,4.8|
3,2,5|
3,4,7.4|
4,0,4.6|
4,1,4|
4,2,5.6|
4,3,6.3|
];
constraint_x12_x3=[
0,1,6.7|
0,2,7.3|
0,3,1.2|
0,4,4|
1,0,1.7|
1,2,9.6|
1,3,0.1|
1,4,9.3|
2,0,1.3|
2,1,2.6|
2,3,3.1|
2,4,2.7|
3,0,0.98|
3,1,8.3|
3,2,5.5|
3,4,9.8|
4,0,4.8|
4,1,8.7|
4,2,8|
4,3,1.9|
];
constraint_x12_x6=[
0,1,7.2|
0,2,1.4|
0,3,1.7|
0,4,4.7|
1,0,9.3|
1,2,8.5|
1,3,0.079|
1,4,2.9|
2,0,3.7|
2,1,5.1|
2,3,2.3|
2,4,5.1|
3,0,2.4|
3,1,9.6|
3,2,9.6|
3,4,4.7|
4,0,0.28|
4,1,6.3|
4,2,6|
4,3,4.8|
];
constraint_x12_x8=[
0,1,9.4|
0,2,8.2|
0,3,1.2|
0,4,6.6|
1,0,4|
1,2,4.1|
1,3,8.8|
1,4,9.2|
2,0,3.5|
2,1,6.2|
2,3,2.5|
2,4,7.1|
3,0,9.9|
3,1,6.7|
3,2,2.3|
3,4,1.7|
4,0,6.3|
4,1,4.9|
4,2,7.5|
4,3,6.3|
];
constraint_x12_x9=[
0,1,8.7|
0,2,2.8|
0,3,2.6|
0,4,2.9|
1,0,7.6|
1,2,1.6|
1,3,3.8|
1,4,3.5|
2,0,2|
2,1,5.9|
2,3,9.8|
2,4,8.6|
3,0,6.3|
3,1,3.8|
3,2,6.3|
3,4,4.6|
4,0,0.73|
4,1,6.9|
4,2,1.6|
4,3,8.4|
];
constraint_x12_x10=[
0,1,7.9|
0,2,0.44|
0,3,5.8|
0,4,4.9|
1,0,6.9|
1,2,3.2|
1,3,7.7|
1,4,1.1|
2,0,5.5|
2,1,6.5|
2,3,3.9|
2,4,9|
3,0,8.4|
3,1,7.8|
3,2,1.6|
3,4,6.9|
4,0,5|
4,1,5.7|
4,2,8.5|
4,3,9.7|
];
constraint_x1_y1=[
0,0,8.9|
0,1,1.6|
0,2,3.3|
0,3,7.6|
0,4,8.2|
1,0,4.7|
1,1,1.7|
1,2,4.2|
1,3,4.6|
1,4,1.9|
2,0,3.6|
2,1,6.6|
2,2,5.7|
2,3,3|
2,4,3.3|
3,0,4.1|
3,1,5.1|
3,2,2.6|
3,3,1.4|
3,4,1|
4,0,6.3|
4,1,6.3|
4,2,4.6|
4,3,4.9|
4,4,3|
];
constraint_x2_y2=[
0,0,9.8|
0,1,6|
0,2,7.5|
0,3,6.8|
0,4,3.7|
1,0,6.9|
1,1,6.7|
1,2,0.52|
1,3,3.9|
1,4,6.6|
2,0,4.7|
2,1,3|
2,2,2.7|
2,3,7.8|
2,4,8.4|
3,0,9.4|
3,1,8.8|
3,2,9.5|
3,3,6.1|
3,4,7.6|
4,0,4.5|
4,1,4.1|
4,2,5|
4,3,0.18|
4,4,6.2|
];
constraint_x3_y3=[
0,0,3.2|
0,1,7.4|
0,2,3.1|
0,3,7.3|
0,4,4|
1,0,3.9|
1,1,4|
1,2,6.8|
1,3,7.1|
1,4,5.3|
2,0,1|
2,1,7.6|
2,2,7.3|
2,3,1.2|
2,4,0.2|
3,0,5.7|
3,1,3.1|
3,2,7.2|
3,3,5.9|
3,4,9.2|
4,0,1.2|
4,1,1.6|
4,2,0.23|
4,3,9.4|
4,4,5.5|
];
constraint_x4_y4=[
0,0,8.5|
0,1,5.2|
0,2,3.1|
0,3,9.8|
0,4,5.8|
1,0,4.6|
1,1,4.2|
1,2,2.9|
1,3,5|
1,4,4.3|
2,0,9.1|
2,1,0.51|
2,2,1.8|
2,3,2|
2,4,9.5|
3,0,7.1|
3,1,9|
3,2,2.9|
3,3,6.2|
3,4,2.1|
4,0,8.9|
4,1,3|
4,2,8.2|
4,3,9.3|
4,4,4.2|
];
constraint_x5_y5=[
0,0,7.6|
0,1,9.7|
0,2,0.83|
0,3,8|
0,4,2|
1,0,1.9|
1,1,0.97|
1,2,3.7|
1,3,1.9|
1,4,6.6|
2,0,7.2|
2,1,4.7|
2,2,5.1|
2,3,1.2|
2,4,6.9|
3,0,5|
3,1,2.3|
3,2,0.094|
3,3,3.2|
3,4,0.16|
4,0,5.7|
4,1,0.65|
4,2,0.85|
4,3,7.8|
4,4,2.5|
];
constraint_x6_y6=[
0,0,1.1|
0,1,0.81|
0,2,3.8|
0,3,4.6|
0,4,8.4|
1,0,1.7|
1,1,4.4|
1,2,3.3|
1,3,6|
1,4,1.6|
2,0,9.9|
2,1,7.3|
2,2,7.7|
2,3,3.6|
2,4,8.1|
3,0,7.1|
3,1,0.2|
3,2,4.7|
3,3,0.085|
3,4,3.3|
4,0,10|
4,1,4.7|
4,2,5.1|
4,3,1.6|
4,4,6.9|
];
initial_distribution_y1=[0.34,0.22,0.13,0.18,0.12];
initial_distribution_y2=[0.36,0.18,0.37,0.064,0.019];
initial_distribution_y3=[0.045,0.47,0.26,0.18,0.044];
initial_distribution_y4=[0.14,0.28,0.07,0.24,0.27];
initial_distribution_y5=[0.34,0.19,0.29,0.089,0.093];
initial_distribution_y6=[0.2,0.061,0.1,0.15,0.48];
transition_y1=[
0.22,0.083,0.16,0.3,0.23|
0.42,0.25,0.056,0.2,0.067|
0.33,0.28,0.18,0.16,0.053|
0.18,0.22,0.058,0.29,0.26|
0.15,0.31,0.054,0.38,0.11|
];
transition_y2=[
0.13,0.14,0.24,0.34,0.15|
0.17,0.37,0.079,0.19,0.19|
0.32,0.18,0.063,0.21,0.23|
0.31,0.29,0.13,0.19,0.086|
0.32,0.29,0.27,0.069,0.054|
];
transition_y3=[
0.12,0.052,0.33,0.15,0.35|
0.26,0.27,0.23,0.082,0.15|
0.54,0.16,0.25,0.011,0.041|
0.24,0.054,0.47,0.13,0.1|
0.014,0.33,0.13,0.2,0.32|
];
transition_y4=[
0.046,0.039,0.07,0.44,0.41|
0.059,0.11,0.35,0.14,0.33|
0.25,0.34,0.092,0.27,0.041|
0.14,0.2,0.13,0.24,0.29|
0.2,0.029,0.079,0.39,0.3|
];
transition_y5=[
0.036,0.016,0.21,0.36,0.38|
0.23,0.022,0.24,0.18,0.33|
0.32,0.11,0.11,0.12,0.33|
0.13,0.58,0.21,0.035,0.045|
0.39,0.36,0.008,0.23,0.014|
];
transition_y6=[
0.24,0.23,0.12,0.18,0.23|
0.32,0.25,0.29,0.011,0.13|
0.12,0.041,0.4,0.12,0.31|
0.1,0.11,0.46,0.14,0.19|
0.057,0.27,0.19,0.15,0.34|
];
